n_res = 4;
rc = [ 15, 14, 12, 12 ];
n_tasks = 30;
d = [ 3, 9, 4, 10, 9, 2, 4, 4, 10, 7, 7, 1, 6, 7, 1, 1, 4, 6, 6, 5, 6, 6, 10, 4, 7, 3, 6, 9, 1, 10 ];
rr = [| 0, 0, 9, 10, 0, 2, 8, 0, 0, 10, 0, 3, 0, 0, 0, 3, 10, 9, 0, 6, 5, 0, 0, 0, 9, 0, 2, 0, 0, 5
      | 0, 7, 0, 3, 0, 6, 0, 0, 0, 0, 2, 0, 10, 1, 1, 0, 6, 2, 6, 0, 0, 6, 8, 4, 0, 9, 8, 0, 0, 0
      | 9, 0, 0, 3, 8, 1, 8, 4, 8, 0, 5, 0, 8, 5, 0, 0, 1, 5, 0, 4, 0, 0, 0, 0, 5, 0, 3, 0, 0, 0
      | 0, 0, 2, 10, 4, 0, 4, 0, 0, 0, 6, 0, 0, 1, 5, 0, 0, 9, 3, 0, 0, 8, 5, 9, 0, 5, 8, 7, 4, 7 |];
suc = [ { 2 }, 
        { 1 }, 
        { 4 }, 
        { 3 }, 
        { 6 }, 
        { 5 }, 
        { 8 }, 
        { 7 }, 
        { 10 }, 
        { 9 }, 
        { 12 }, 
        { 11 }, 
        { 14 }, 
        { 13 }, 
        { 16 }, 
        { 15 }, 
        { 18 }, 
        { 17 }, 
        { 20 }, 
        { 19 }, 
        { 22 }, 
        { 21 }, 
        { 24 }, 
        { 23 }, 
        { 26 }, 
        { 25 }, 
        { 28 }, 
        { 27 }, 
        { 30 }, 
        { 29 }]; 
